(set-info :smt-lib-version 2.6)
(set-logic QF_S)
(set-info :source |
Generated by: Hung-En Wang, Tzung-Lin Tsai, Chun-Han Lin, Fang Yu, and Jie-Hong R. Jiang
Generated on: 2019-02-28
Generator: Stranger
Application: Security analysis of string manipulating web applications
Target solver: CVC4, Norn, Z3-str2
Publication:
Hung-En Wang, Tzung-Lin Tsai, Chun-Han Lin, Fang Yu, Jie-Hong R. Jiang:
String Analysis via Automata Manipulation with Logic Circuit Representation. CAV (1) 2016: 241-260.
|)
(set-info :license "https://creativecommons.org/licenses/by/4.0/")
(set-info :category "industrial")
(set-info :status unknown)

(declare-fun sigmaStar_0 () String)
(declare-fun sigmaStar_1 () String)
(declare-fun literal_5 () String)
(declare-fun x_4 () String)
(declare-fun epsilon () String)
(declare-fun x_6 () String)
(declare-fun literal_7 () String)
(declare-fun x_8 () String)
(declare-fun x_9 () String)
(declare-fun x_10 () String)
(declare-fun literal_11 () String)
(declare-fun x_12 () String)
(assert (= literal_5 "\u{3c}\u{6f}\u{70}\u{74}\u{69}\u{6f}\u{6e}\u{20}\u{76}\u{61}\u{6c}\u{75}\u{65}\u{3d}\u{27}"))
(assert (= epsilon ""))
(assert (or (= x_4 epsilon) (= x_4 sigmaStar_0)))
(assert (= x_6 (str.++ literal_5 x_4)))
(assert (= literal_7 "\u{27}\u{3e}"))
(assert (= x_8 (str.++ x_6 literal_7)))
(assert (or (= x_9 epsilon) (= x_9 sigmaStar_1)))
(assert (= x_10 (str.++ x_8 x_9)))
(assert (= literal_11 "\u{3c}\u{2f}\u{6f}\u{70}\u{74}\u{69}\u{6f}\u{6e}\u{3e}\u{5c}\u{6e}"))
(assert (= x_12 (str.++ x_10 literal_11)))
(assert (str.in_re x_12 (re.++ (re.* re.allchar) (re.++ (str.to_re "\u{5c}\u{3c}\u{53}\u{43}\u{52}\u{49}\u{50}\u{54}") (re.* re.allchar)))))
(check-sat)
(exit)
